p cnf 69 228
1 -2 -3 0
-1 2 -3 0
1 2 3 0
-1 -2 3 0
5 -3 0
5 -4 0
3 4 -5 0
-6 -7 -8 0
6 7 -8 0
-6 7 8 0
6 -7 8 0
-5 -8 -9 0
5 8 -9 0
-5 8 9 0
5 -8 9 0
-11 12 -13 0
11 -12 -13 0
-11 -12 13 0
11 12 13 0
-14 12 0
-14 6 0
-12 -6 14 0
15 13 0
15 -14 0
-13 14 -15 0
10 -15 -16 0
-10 15 -16 0
10 15 16 0
-10 -15 16 0
8 10 -17 0
-8 -10 -17 0
8 -10 17 0
-8 10 17 0
17 -14 -18 0
-17 14 -18 0
17 14 18 0
-17 -14 18 0
-19 13 0
-19 18 0
-13 -18 19 0
20 -16 0
20 -19 0
16 19 -20 0
-1 12 -21 0
1 -12 -21 0
-1 -12 21 0
1 12 21 0
22 -21 0
22 8 0
21 -8 -22 0
-7 -22 -23 0
7 22 -23 0
-7 22 23 0
7 -22 23 0
-25 -24 0
-25 1 0
24 -1 25 0
23 25 -26 0
-23 -25 -26 0
23 -25 26 0
-23 25 26 0
-20 -26 -27 0
20 26 -27 0
-20 26 27 0
20 -26 27 0
28 7 0
28 -14 0
-7 14 -28 0
-4 -28 -29 0
4 28 -29 0
-4 28 29 0
4 -28 29 0
-31 30 0
-31 -2 0
-30 2 31 0
-29 -31 -32 0
29 31 -32 0
-29 31 32 0
29 -31 32 0
7 -14 -33 0
-7 14 -33 0
7 14 33 0
-7 -14 33 0
-33 -17 -34 0
33 17 -34 0
-33 17 34 0
33 -17 34 0
36 -35 0
36 -7 0
35 7 -36 0
-34 36 -37 0
34 -36 -37 0
-34 -36 37 0
34 36 37 0
-38 -2 0
-38 1 0
2 -1 38 0
37 38 -39 0
-37 -38 -39 0
37 -38 39 0
-37 38 39 0
-40 -10 0
-40 6 0
10 -6 40 0
-41 8 0
-41 -6 0
-8 6 41 0
42 40 0
42 -41 0
-40 41 -42 0
-43 39 0
-43 -42 0
-39 42 43 0
44 32 0
44 -43 0
-32 43 -44 0
-45 -27 0
-45 44 0
27 -44 45 0
-47 10 0
-47 -46 0
-10 46 47 0
-49 17 0
-49 48 0
-17 -48 49 0
-49 10 -50 0
49 -10 -50 0
-49 -10 50 0
49 10 50 0
-51 -47 0
-51 50 0
47 -50 51 0
-52 18 0
-52 51 0
-18 -51 52 0
53 -4 0
53 -47 0
4 47 -53 0
-54 -53 0
-54 24 0
53 -24 54 0
-52 54 -55 0
52 -54 -55 0
-52 -54 55 0
52 54 55 0
56 24 0
56 -8 0
-24 8 -56 0
-57 -24 0
-57 -46 0
24 46 57 0
58 -4 0
58 -3 0
4 3 -58 0
-18 58 -59 0
18 -58 -59 0
-18 -58 59 0
18 58 59 0
1 4 -60 0
-1 -4 -60 0
1 -4 60 0
-1 4 60 0
-62 61 0
-62 -35 0
-61 35 62 0
-60 -62 -63 0
60 62 -63 0
-60 62 63 0
60 -62 63 0
64 59 0
64 63 0
-59 -63 -64 0
65 57 0
65 64 0
-57 -64 -65 0
-56 -65 -66 0
56 65 -66 0
-56 65 66 0
56 -65 66 0
55 66 -67 0
-55 -66 -67 0
55 -66 67 0
-55 66 67 0
-68 45 0
-68 67 0
-45 -67 68 0
69 -9 0
69 -68 0
9 68 -69 0
21 48 -32 60 0
8 67 0
-57 -35 55 43 -8 46 0
-15 33 -7 0
65 34 30 -32 66 0
21 5 44 20 0
-39 35 0
17 -4 -15 19 -24 0
-33 -6 -57 0
45 -13 41 -51 0
-10 36 -67 0
-61 -48 -68 -65 -34 -7 0
25 -20 62 0
-40 -38 -4 63 0
59 -40 -20 0
27 18 66 -16 0
51 -23 -67 -54 0
43 -27 44 25 0
-31 -24 -34 0
3 59 -56 58 -2 69 0
-69 -67 48 51 0
15 47 -16 -30 23 26 0
-35 -12 0
67 -63 -56 39 -28 0
64 -9 -5 -44 41 28 0
-6 -52 59 47 -32 -39 0
-53 6 5 58 -19 0
-55 60 30 9 0
17 57 -27 -43 18 0
23 51 58 0
46 -35 -48 19 -67 33 0
9 39 0
52 -48 1 0
-41 25 0
-9 3 0
27 -41 -48 -6 -8 0
-67 -15 -23 -33 5 0
63 68 0
69 0
